
Gurobi 13.0.2 (win64) logging started Thu Jul 23 07:54:31 2026

Set parameter LogFile to value "E:\codes\ExactEBRP\results\gf_cplex_equivalent_gurobi_replica_round28\runs\stage3__V12_M1__c2_paper__300s\external\native_logs\L1.1.1.1.1.1.1.1.1_lp.gurobi.log"
Gurobi Optimizer version 13.0.2 build v13.0.2rc1 (win64 - Windows 10.0 (19045.2))

CPU model: 12th Gen Intel(R) Core(TM) i7-12700KF, instruction set [SSE2|AVX|AVX2]
Thread count: 12 physical cores, 20 logical processors, using up to 1 threads

Non-default parameters:
TimeLimit  182.9552704
MIPGap  0
MIPGapAbs  0
LogToConsole  0
Threads  1

Optimize a model with 6225 rows, 648 columns and 59365 nonzeros (Min)
Model fingerprint: 0xdd466aec
Model has 13 linear objective coefficients
Coefficient statistics:
  Matrix range     [2e-03, 1e+05]
  Objective range  [2e-03, 1e+00]
  Bounds range     [1e-01, 8e+01]
  RHS range        [3e-02, 1e+06]

Presolve removed 245 rows and 38 columns
Presolve time: 0.02s
Presolved: 5980 rows, 611 columns, 58644 nonzeros

Iteration    Objective       Primal Inf.    Dual Inf.      Time
       0    1.8268986e-01   1.412193e+02   0.000000e+00      0s
     716    3.0858791e-01   0.000000e+00   0.000000e+00      0s

Solved in 716 iterations and 0.05 seconds (0.18 work units)
Optimal objective  3.085879121e-01

User-callback calls 858, time in user-callback 0.00 sec
